c preprocessed version of celar01, 47 vertices, 275 edges
p td 47 275
0 1
0 2
0 13
0 3
0 6
0 7
0 10
0 12
0 11
0 14
0 5
0 42
4 0
15 0
41 0
40 0
1 2
1 13
1 6
1 10
1 23
1 12
1 27
1 11
1 14
28 1
34 1
21 1
17 1
15 1
22 1
39 1
2 3
2 23
2 27
28 2
34 2
21 2
17 2
22 2
39 2
41 2
40 2
4 3
21 3
41 3
40 3
4 5
4 8
4 11
4 12
4 20
4 19
18 4
4 17
4 21
22 4
40 4
5 6
5 7
5 42
5 9
5 10
21 5
32 5
41 5
6 7
6 10
6 12
6 14
6 42
6 11
15 6
41 6
40 6
8 7
9 7
7 10
7 42
32 7
41 7
9 8
8 19
8 10
18 8
41 8
40 8
9 10
9 19
18 9
21 9
41 9
10 11
13 10
10 14
10 42
15 10
32 10
41 10
40 10
12 11
11 14
20 11
21 11
15 11
32 11
13 12
12 14
12 42
21 12
15 12
32 12
40 12
13 14
13 42
15 13
32 13
41 13
15 14
14 42
15 16
15 32
31 15
16 17
16 23
16 27
16 28
16 34
32 16
31 16
22 16
39 16
17 18
17 24
17 27
17 26
17 29
17 25
17 28
17 34
21 17
36 17
22 17
18 19
18 21
20 19
21 19
32 19
21 20
32 20
22 21
40 21
22 23
22 27
22 28
22 34
37 22
36 22
38 22
22 39
24 23
23 27
29 23
28 23
34 23
24 25
24 26
29 24
28 24
34 24
31 24
38 24
39 24
25 26
29 25
28 25
34 25
38 25
27 26
29 26
28 26
38 26
28 27
34 27
31 27
39 27
28 29
28 34
33 28
35 28
37 28
39 28
30 29
31 29
38 29
39 29
31 30
33 30
35 30
37 30
31 32
31 33
31 35
37 31
33 34
33 35
35 34
37 34
39 34
36 35
37 36
36 38
36 39
37 38
37 39
39 38
41 40
41 42
43 2
43 41
43 6
43 7
43 8
43 40
43 9
43 10
43 11
43 19
43 20
43 45
43 15
43 44
44 41
44 45
44 40
44 0
44 6
44 5
44 7
44 8
44 9
44 12
44 13
44 10
44 42
44 11
44 20
44 4
44 21
44 15
45 46
45 41
45 0
45 2
45 3
45 7
45 8
45 40
45 10
45 20
45 4
45 21
45 32
46 43
46 44
46 0
46 1
46 6
46 10
46 11
46 12
46 13
46 14
46 20
46 15
